17603 16831 16396 15817 15582 15193 14756 14609 14498 14241 14028 13816 13655 13426 13196 12851 12579 12473 12053 11870 11808 11598 11441 11209 10932 10843 10711 10544 10330 10098 9918 9706 9570 9477 9369 9275 9238 9155 9078 8972 8832 8792 8721 8560 8488 8485 8427 8367 8321 8278 8217 8149 8032 8020 7959 7872 7779 7706 7634 7525 7507 7431 7402 7338 7266 7219 7158 7112 7088 7028 7017 6942 6908 6842 6765 6735 6670 6620 6598 6571 6546 6489 6457 6389 6373 6350 6287 6267 6231 6190 6170 6158 6121 6113 6079 6059 6031 6001 5997 5959 5939 5917 5884 5859 5855 5830 5822 5795 5765 5749 5725 5702 5679 5641 5621 5565 5539 5519 5501 5470 5458 5433 5424 5402 5389 5374 5365 5353 5332 5313 5296 5281 5269 5253 5247 5234 5221 5211 5189 5172 5149 5127 5114 5111 5097 5088 5083 5067 5050 4992 4955 4948 4884 4884 4869 4860 4847 4839 4827 4816 4806 4783 4766 4754 4721 4716 4710 4706 4696 4696 4685 4677 4652 4629 4621 4602 4600 4590 4585 4575 4560 4553 4549 4528 4519 4510 4506 4498 4488 4480 4475 4469 4460 4431 4431 4427 4419 4417 4414 4406 4392 4378 4371 4352 4346 4320 4320 4294 4294 4294 4292 4283 4280 4278 4268 4254 4254 4246 4239 4235 4231 4223 4221 4214 4210 4200 4200 4187 4180 4175 4166 4154 4154 4153 4141 4129 4123 4111 4102 4084 4066 4061 4056 4051 4047 4035 4035 4028 4028 4006 4006 4004 3994 3992 3990 3988 3986 3971 3967 3965 3948 3946 3946 3942 3940 3940 3936 3927 3923 3923 3915 3914 3906 3901 3897 3895 3886 3884 3872 3867 3856 3847 3839 3832 3824 3810 3803 3797 3786 3786 3778 3773 3765 3762 3754 3754 3751 3751 3751 3747 3747 3741 3741 3736 3733 3728 3727 3719 3717 3711 3711 3707 3707 3707 3700 3700 3698 3694 3691 3690 3686 3685 3662 3656 3650 3650 3650 3638 3638 3632 3632 3632 3631 3626 3626 3625 3620 3619 3618 3617 3617 3616 3616 3616 3615 3615 3615 3615 3615 3615 3615 3615 3615 3615 3615 3615 3615 3612 3612 3612 3608 3608 3606 3606 3594 3586 3586 3584 3584 3584 3578 3578 3570 3570 3570 3570 3570 3570 3570 3570 3570 3570 3570 3570 3568 3568 3568 3568 3568 3568 3568 3568 3568 3566 3566 3566 3566 3566 3566 3566 3566 3566 3566 3566 3566 3566 3566 3566 3566 3566 3566 3566 3566 3566 3566 3566 3566 3566 3566 3566 3566 3566 3566 3566 3566 3566 3566 3566 3566 3566 3566 3566 3566 3566 3566 3566 3566 3566 3566 3566 3566 3566 3566 3566 3566 3566 3566 3566 3566 3566 3566 3566 3565 3565 3565 3565 3565 3565 3565 3565 3565 3565 3565 3565 3565 3565 3565 3565 3565 3565 3565 3565 3565 3565 3565 3565 3565 3565 3565 3565 3565 3565 3565 3565 3565 3565 3565 3565 3565 3565 3565 3565 3565 3565 3565 3565 3565 3565 3565 3565 3565 3565 3565 3565 3565 3565 3565 3565 3565 3565 3565 3565 3565 3565 3565 3565 3565 3565 3565 3565 3565 3565 3565 3565 3565 3565 3565 3565 3565 3565 3565 3565 3565 3565 3565 3565 3565 3565 3565 3565 3565 3565 3565 3565 3565 3565 3565 3565 3565 3565 3565 3565 3565 3565 3565 3565 3565 3565 3565 3565 3565 3565 3565 3565 3565 3565 3565 3565 3565 3565 3565 3565 3565 3565 3565 3565 3565 3565 3565 3565 3565 3565 3565 3565 3565 3565 3565 3565 3565 3565 3565 3565 3565 3565 3565 3565 3565 3565 3565 3565 3565 3565 3565 3565 3565 3565 3565 3565 3565 3565 3565 3565 3565 3565 3565 3565 3565 3565 3565 3565 3565 3565 3565 3565 3565 3565 3565 3565 3565 3565 3565 3565 3565 3565 3565 3565 3565 3565 3565 3565 3565 3565 3565 3565 3565 3565 3565 3565 3565 3565 3565 3565 3565 3565 3565 3565 3565 3565 3565 3565 3565 3565 3565 3565 3565 3565 3565 3565 3565 3565 3565 3565 3565 3565 3565 3565 3565 3565 3565 3565 3565 3565 3565 3565 3565 3565 3565 3565 3565 3565 3565 3565 3565 3565 3565 3565 3565 3565 3565 3565 3565 3565 3565 3565 3565 3565 3565 3565 3565 3565 3565 3565 3565 3565 3565 3565 3565 3565 3565 3565 3565 3565 3565 3565 3565 3565 3565 3565 3565 3565 3565 3565 3565 3565 3565 3565 3565 3565 3565 3565 3565 3565 3565 3565 3565 3565 3565 3565 3565 3565 3565 3565 3565 3565 3565 3565 3565 3565 3565 3565 3565 3565 3565 3565 3565 3565 3565 3565 3565 3565 3565 3565 3565 3565 3565 3565 3565 3565 3565 3565 3565 3565 3565 3565 3565 3565 3565 3565 3565 3565 3565 3565 3565 3565 3565 3565 3565 3565 3565 3565 3565 3565 3565 3565 3565 3565 3565 3565 3565 3565 3565 3565 3565 3565 3565 3565 3565 3565 3565 3565 3565 3565 3565 3565 3565 3565 3565 3565 3565 3565 3565 3565 3565 3565 3565 3565 3565 3565 3565 3565 3565 3565 3565 3565 3565 3565 3565 3565 3565 3565 3565 3565 3565 3565 3565 3565 3565 3565 3565 3565 3565 3565 3565 3565 3565 3565 3565 3565 3565 3565 3565 3565 3565 3565 3565 3565 3565 3565 3565 3565 3565 3565 3565 3565 3565 3565 3565 3565 3565 3565 3565 3565 3565 3565 3565 3565 3565 3565 3565 3565 3565 3565 3565 3565 3565 3565 3565 3565 3565 3565 3565 3565 3565 3565 3565 3565 3565 3565 3565 3565 3565 3565 3565 3565 3565 3565 3565 3565 3565 3565 3565 3565 3565 3565 3565 3565 3565 3565 3565 3565 3565 3565 3565 3565 3565 3565 3565 3565 3565 3565 3565 3565 3565 3565 3565 3565 3565 3565 3565 3565 3565 3565 3565 3565 3565 3565 3565 3565 3565 3565 3565 3565 3565 3565 3565 3565 3565 3565 3565 3565 3565 3565 3565 3565 3565 3565 3565 3565 3565 3565 3565 3565 3565 3565 3565 3565 3565 3565 3565 3565 3565 3565 3565 3565 3565 3565 3565 3565 3565 3565 3565 3565 3565 3565 3565 3565 3565 3565 3565 3565 3565 3565 3565 3565 3565 3565 3565 3565 3565 3565 3565 3565 3565 3565 3565 3565 3565 3565 3565 3565 3565 3565 3565 3565 3565 3565 3565 3565 3565 3565 3565 3565 3565 3565 3565 3565 3565 3565 3565 3565 3565 3565 3565 3565 3565 3565 3565 3565 3565 3565 3565 3565 3565 3565 3565 3565 3565 3565 3565 3565 3565 3565 3565 3565 3565 3565 3565 3565 3565 3565 3565 3565 3565 3565 3565 3565 3565 3565 3565 3565 3565 3565 3565 3565 3565 3565 3565 3565 3565 3565 3565 3565 3565 3565 3565 3565 3565 3565 3565 3565 3565 3565 3565 3565 3565 3565 3565 3565 3565 3565 3565 3565 3565 3565 3565 3565 3565 3565 3565 3565 3565 3565 3565 3565 3565 3565 3565 3565 3565 3565 3565 3565 3565 3565 3565 3565 3565 3565 3565 3565 3565 3565 3565 3565 3565 3565 3565 3565 3565 3565 3565 3565 3565 3565 3565 3565 3565 3565 3565 3565 3565 3565 3565 3565 3565 3565 3565 3565 3565 3565 3565 3565 3565 3565 3565 3565 3565 3565 3565 3565 3565 3565 3565 3565 3565 3565 3565 3565 3565 3565 3565 3565 3565 3565 3565 3565 3565 3565 3565 3565 3565 3565 3565 3565 3565 3565 3565 3565 3565 3565 3565 3565 3565 3565 3565 3565 3565 3565 3565 3565 3565 3565 3565 3565 3565 3565 3565 3565 3565 3565 3565 3565 3565 3565 3565 3565 3565 3565 3565 3565 3565 3565 3565 3565 3565 3565 3565 3565 3565 3565 3565 3565 3565 3565 3565 3565 3565 3565 3565 3565 3565 3565 3565 3565 3565 3565 3565 3565 3565 3565 3565 3565 3565 3565 3565 3565 3565 3565 3565 3565 3565 3565 3565 3565 3565 3565 3565 3565 3565 3565 3565 3565 3565 3565 3565 3565 3565 3565 3565 3565 3565 3565 3565 3565 3565 3565 3565 3565 3565 3565 3565 3565 3565 3565 3565 3565 3565 3565 3565 3565 3565 3565 3565 3565 3565 3565 3565 3565 3565 3565 3565 3565 3565 3565 3565 3565 3565 3565 3565 3565 3565 3565 3565 3565 3565 3565 3565 3565 3565 3565 3565 3565 3565 3565 3565 3565 3565 3565 3565 3565 3565 3565 3565 3565 3565 3565 3565 3565 3565 3565 3565 3565 3565 3565 3565 3565 3565 3565 3565 3565 3565 3565 3565 3565 3565 3565 3565 3565 3565 3565 3565 3565 3565 3565 3565 3565 3565 3565 3565 3565 3565 3565 3565 3565 3565 3565 3565 3565 3565 3565 3565 3565 3565 3565 3565 3565 3565 3565 3565 3565 3565 3565 3565 3565 3565 3565 3565 3565 3565 3565 3565 3565 3565 3565 3565 3565 3565 3565 3565 3565 3565 3565 3565 3565 3565 3565 3565 3565 3565 3565 3565 3565 3565 3565 3565 3565 3565 3565 3565 3565 3565 3565 3565 3565 3565 3565 3565 3565 3565 3565 3565 3565 3565 3565 3565 3565 3565 3565 3565 3565 
19133 18210 17591 17072 16632 16246 15891 15584 15257 14986 14697 14518 14284 14030 13792 13536 13257 12984 12727 12512 12272 12036 11848 11658 11441 11223 11020 10853 10684 10506 10321 10130 9931 9738 9581 9465 9382 9303 9243 9172 9079 8988 8894 8802 8724 8640 8553 8492 8442 8385 8334 8284 8232 8164 8097 8039 7983 7901 7811 7731 7661 7585 7512 7460 7408 7352 7294 7219 7153 7118 7084 7047 7016 6975 6916 6843 6784 6727 6666 6628 6598 6569 6542 6512 6472 6424 6384 6355 6318 6272 6232 6198 6174 6152 6130 6110 6085 6052 6027 6010 5995 5973 5950 5919 5892 5869 5852 5834 5817 5795 5769 5747 5722 5696 5674 5654 5627 5601 5556 5518 5504 5477 5463 5443 5420 5406 5392 5377 5364 5351 5330 5311 5295 5283 5268 5256 5245 5235 5226 5216 5200 5177 5151 5126 5113 5111 5098 5088 5083 5074 5056 5034 4977 4946 4921 4888 4873 4864 4854 4845 4833 4818 4804 4786 4769 4754 4739 4718 4714 4707 4701 4695 4687 4679 4666 4650 4624 4605 4599 4592 4583 4574 4562 4553 4551 4536 4517 4511 4504 4498 4495 4480 4475 4472 4465 4457 4440 4426 4424 4418 4414 4409 4402 4386 4376 4366 4351 4344 4322 4308 4293 4293 4293 4291 4281 4276 4268 4264 4255 4250 4241 4237 4231 4229 4226 4219 4213 4209 4198 4186 4179 4179 4170 4165 4155 4152 4140 4132 4125 4120 4105 4091 4072 4063 4059 4050 4045 4034 4034 4033 4027 4025 4020 4005 4002 3993 3991 3988 3985 3984 3967 3964 3958 3947 3945 3943 3941 3939 3937 3935 3926 3922 3917 3916 3912 3910 3896 3896 3885 3883 3871 3867 3855 3848 3842 3832 3820 3809 3802 3802 3798 3785 3785 3776 3765 3761 3753 3753 3753 3750 3750 3750 3746 3745 3740 3735 3735 3732 3726 3718 3716 3710 3710 3710 3706 3706 3705 3701 3697 3695 3693 3690 3688 3684 3678 3656 3651 3649 3647 3647 3645 3637 3631 3631 3631 3630 3625 3624 3623 3619 3617 3616 3616 3616 3615 3615 3615 3615 3615 3615 3615 3615 3615 3615 3615 3615 3615 3614 3614 3614 3611 3611 3611 3607 3607 3605 3605 3601 3589 3585 3583 3583 3583 3581 3577 3570 3570 3570 3570 3570 3570 3570 3570 3570 3569 3569 3569 3568 3568 3568 3568 3568 3568 3567 3567 3567 3567 3566 3566 3566 3566 3566 3566 3566 3566 3566 3566 3566 3566 3566 3566 3566 3566 3566 3566 3566 3566 3566 3566 3566 3566 3566 3566 3566 3566 3566 3566 3566 3566 3566 3566 3566 3566 3566 3566 3566 3566 3566 3566 3566 3566 3566 3566 3566 3566 3566 3566 3566 3566 3566 3566 3566 3565 3565 3565 3565 3565 3565 3565 3565 3565 3565 3565 3565 3565 3565 3565 3565 3565 3565 3565 3565 3565 3565 3565 3565 3565 3565 3565 3565 3565 3565 3565 3565 3565 3565 3565 3565 3565 3565 3565 3565 3565 3565 3565 3565 3565 3565 3565 3565 3565 3565 3565 3565 3565 3565 3565 3565 3565 3565 3565 3565 3565 3565 3565 3565 3565 3565 3565 3565 3565 3565 3565 3565 3565 3565 3565 3565 3565 3565 3565 3565 3565 3565 3565 3565 3565 3565 3565 3565 3565 3565 3565 3565 3565 3565 3565 3565 3565 3565 3565 3565 3565 3565 3565 3565 3565 3565 3565 3565 3565 3565 3565 3565 3565 3565 3565 3565 3565 3565 3565 3565 3565 3565 3565 3565 3565 3565 3565 3565 3565 3565 3565 3565 3565 3565 3565 3565 3565 3565 3565 3565 3565 3565 3565 3565 3565 3565 3565 3565 3565 3565 3565 3565 3565 3565 3565 3565 3565 3565 3565 3565 3565 3565 3565 3565 3565 3565 3565 3565 3565 3565 3565 3565 3565 3565 3565 3565 3565 3565 3565 3565 3565 3565 3565 3565 3565 3565 3565 3565 3565 3565 3565 3565 3565 3565 3565 3565 3565 3565 3565 3565 3565 3565 3565 3565 3565 3565 3565 3565 3565 3565 3565 3565 3565 3565 3565 3565 3565 3565 3565 3565 3565 3565 3565 3565 3565 3565 3565 3565 3565 3565 3565 3565 3565 3565 3565 3565 3565 3565 3565 3565 3565 3565 3565 3565 3565 3565 3565 3565 3565 3565 3565 3565 3565 3565 3565 3565 3565 3565 3565 3565 3565 3565 3565 3565 3565 3565 3565 3565 3565 3565 3565 3565 3565 3565 3565 3565 3565 3565 3565 3565 3565 3565 3565 3565 3565 3565 3565 3565 3565 3565 3565 3565 3565 3565 3565 3565 3565 3565 3565 3565 3565 3565 3565 3565 3565 3565 3565 3565 3565 3565 3565 3565 3565 3565 3565 3565 3565 3565 3565 3565 3565 3565 3565 3565 3565 3565 3565 3565 3565 3565 3565 3565 3565 3565 3565 3565 3565 3565 3565 3565 3565 3565 3565 3565 3565 3565 3565 3565 3565 3565 3565 3565 3565 3565 3565 3565 3565 3565 3565 3565 3565 3565 3565 3565 3565 3565 3565 3565 3565 3565 3565 3565 3565 3565 3565 3565 3565 3565 3565 3565 3565 3565 3565 3565 3565 3565 3565 3565 3565 3565 3565 3565 3565 3565 3565 3565 3565 3565 3565 3565 3565 3565 3565 3565 3565 3565 3565 3565 3565 3565 3565 3565 3565 3565 3565 3565 3565 3565 3565 3565 3565 3565 3565 3565 3565 3565 3565 3565 3565 3565 3565 3565 3565 3565 3565 3565 3565 3565 3565 3565 3565 3565 3565 3565 3565 3565 3565 3565 3565 3565 3565 3565 3565 3565 3565 3565 3565 3565 3565 3565 3565 3565 3565 3565 3565 3565 3565 3565 3565 3565 3565 3565 3565 3565 3565 3565 3565 3565 3565 3565 3565 3565 3565 3565 3565 3565 3565 3565 3565 3565 3565 3565 3565 3565 3565 3565 3565 3565 3565 3565 3565 3565 3565 3565 3565 3565 3565 3565 3565 3565 3565 3565 3565 3565 3565 3565 3565 3565 3565 3565 3565 3565 3565 3565 3565 3565 3565 3565 3565 3565 3565 3565 3565 3565 3565 3565 3565 3565 3565 3565 3565 3565 3565 3565 3565 3565 3565 3565 3565 3565 3565 3565 3565 3565 3565 3565 3565 3565 3565 3565 3565 3565 3565 3565 3565 3565 3565 3565 3565 3565 3565 3565 3565 3565 3565 3565 3565 3565 3565 3565 3565 3565 3565 3565 3565 3565 3565 3565 3565 3565 3565 3565 3565 3565 3565 3565 3565 3565 3565 3565 3565 3565 3565 3565 3565 3565 3565 3565 3565 3565 3565 3565 3565 3565 3565 3565 3565 3565 3565 3565 3565 3565 3565 3565 3565 3565 3565 3565 3565 3565 3565 3565 3565 3565 3565 3565 3565 3565 3565 3565 3565 3565 3565 3565 3565 3565 3565 3565 3565 3565 3565 3565 3565 3565 3565 3565 3565 3565 3565 3565 3565 3565 3565 3565 3565 3565 3565 3565 3565 3565 3565 3565 3565 3565 3565 3565 3565 3565 3565 3565 3565 3565 3565 3565 3565 3565 3565 3565 3565 3565 3565 3565 3565 3565 3565 3565 3565 3565 3565 3565 3565 3565 3565 3565 3565 3565 3565 3565 3565 3565 3565 3565 3565 3565 3565 3565 3565 3565 3565 3565 3565 3565 3565 3565 3565 3565 3565 3565 3565 3565 3565 3565 3565 3565 3565 3565 3565 3565 3565 3565 3565 3565 3565 3565 3565 3565 3565 3565 3565 3565 3565 3565 3565 3565 3565 3565 3565 3565 3565 3565 3565 3565 3565 3565 3565 3565 3565 3565 3565 3565 3565 3565 3565 3565 3565 3565 3565 3565 3565 3565 3565 3565 3565 3565 3565 3565 3565 3565 3565 3565 3565 3565 3565 3565 3565 3565 3565 3565 3565 3565 3565 3565 3565 3565 3565 3565 3565 3565 3565 3565 3565 3565 3565 3565 3565 3565 3565 3565 3565 3565 3565 3565 3565 3565 3565 3565 3565 3565 3565 3565 3565 3565 3565 3565 3565 3565 3565 3565 3565 3565 3565 3565 3565 3565 3565 3565 3565 3565 3565 3565 3565 3565 3565 3565 3565 3565 3565 3565 3565 3565 3565 3565 3565 3565 3565 3565 3565 3565 3565 3565 3565 3565 3565 3565 3565 3565 3565 3565 3565 3565 3565 3565 3565 3565 3565 3565 3565 3565 3565 3565 3565 3565 3565 3565 3565 3565 3565 3565 3565 3565 3565 3565 3565 3565 3565 3565 3565 3565 3565 3565 3565 3565 3565 3565 3565 3565 3565 3565 3565 3565 3565 3565 3565 3565 3565 3565 3565 3565 3565 3565 3565 3565 3565 3565 3565 3565 3565 3565 3565 3565 3565 3565 3565 3565 3565 3565 3565 3565 3565 3565 3565 3565 3565 3565 3565 3565 3565 3565 3565 3565 3565 3565 3565 3565 3565 3565 3565 3565 3565 3565 3565 3565 3565 3565 3565 3565 3565 3565 3565 3565 3565 3565 3565 3565 3565 3565 3565 3565 3565 3565 3565 3565 3565 3565 3565 3565 3565 3565 3565 3565 3565 3565 3565 3565 3565 3565 3565 3565 3565 3565 3565 3565 3565 3565 3565 3565 3565 3565 3565 3565 3565 3565 3565 3565 3565 3565 3565 3565 3565 3565 3565 3565 3565 3565 3565 3565 3565 3565 3565 3565 3565 3565 3565 3565 3565 3565 3565 3565 